50
18542

260 567
257 408
435 77
260 401
73 435
816 355
713 266
976 174
198 675
310 267
466 9
187 228
767 995
858 829
667 766
63 94
176 68
80 449
963 33
82 318
327 364
317 698
730 800
150 447
407 72
290 872
675 626
470 168
75 925
154 339
227 541
702 421
936 992
609 642
607 25
751 777
239 527
149 476
527 602
297 121
208 904
513 195
837 553
239 499
567 541
953 645
735 294
577 375
19 73
769 145
